%%%mzn-stat: initTime=0.019833289
%%%mzn-stat: objective=164
%%%mzn-stat: nodes=4197
%%%mzn-stat: restarts=0
%%%mzn-stat: peakDepth=565
%%%mzn-stat: solveTime=1.804243702
%%%mzn-stat: variables=1778
%%%mzn-stat: propagators=1414
%%%mzn-stat: failures=3062
%%%mzn-stat: propagations=283966
%%%mzn-stat: nogoods=3062
%%%mzn-stat: AverageConflictSize=16.19823644676682
%%%mzn-stat: NumUnitNogoodsLearned=163
%%%mzn-stat: AverageLearnedNogoodLength=48.07935989549314
%%%mzn-stat: AverageBacktrackAmount=0
%%%mzn-stat: AverageLbd=7.035924232527759
%%%mzn-stat-end
maxleg = 164;
succ = array1d(1..100,[75, 5, 83, 95, 29, 57, 21, 10, 81, 96, 60, 77, 4, 68, 38, 90, 28, 64, 82, 67, 89, 45, 48, 47, 20, 99, 74, 32, 93, 44, 46, 91, 65, 36, 85, 58, 87, 18, 55, 30, 62, 98, 50, 3, 17, 66, 88, 100, 26, 61, 69, 70, 9, 53, 22, 33, 43, 2, 72, 13, 19, 40, 79, 1, 59, 25, 63, 37, 94, 14, 84, 52, 35, 42, 34, 56, 97, 49, 78, 11, 41, 7, 23, 80, 24, 71, 31, 15, 86, 39, 54, 12, 27, 8, 51, 76, 16, 6, 92, 73]);
% time elapsed: 8.59 s
----------
==========
% time elapsed: 8.59 s
%%%mzn-stat: initTime=0.019833289
%%%mzn-stat: objective=164
%%%mzn-stat: nodes=4197
%%%mzn-stat: restarts=0
%%%mzn-stat: peakDepth=565
%%%mzn-stat: solveTime=1.804254215
%%%mzn-stat: variables=1778
%%%mzn-stat: propagators=1414
%%%mzn-stat: failures=3062
%%%mzn-stat: propagations=283966
%%%mzn-stat: nogoods=3062
%%%mzn-stat: AverageConflictSize=16.19823644676682
%%%mzn-stat: NumUnitNogoodsLearned=163
%%%mzn-stat: AverageLearnedNogoodLength=48.07935989549314
%%%mzn-stat: AverageBacktrackAmount=0
%%%mzn-stat: AverageLbd=7.035924232527759
%%%mzn-stat-end
